log                 lammps.log
# Initialization
units				real
boundary			p p p
atom_style			full

# Force Fields
neighbor			2.0 bin
neigh_modify		delay 0 every 1 check yes
special_bonds		amber
bond_style			harmonic
angle_style			harmonic
dihedral_style		harmonic
improper_style		cvff
pair_style			lj/cut/coul/long 10.0
kspace_style		pppm 1.0e-4

read_data			../complex.data

thermo				1
thermo_style		custom step etotal pe ebond eangle edihed eimp evdwl ecoul elong press fmax fnorm
min_style			sd
minimize			1e-6 1000 10 10000
min_style			cg
minimize			1e-6 100 99990 990000
#unfix 				1
write_restart		restart.emin.restart

write_dump			all custom dump.emin.dump id type element mol x y z mass q 