# Initialization
units				real
boundary			p p p
atom_style			full
log					lammps.log

# Force Fields
neighbor			$neigh_args
neigh_modify		$neigh_modify_args
special_bonds		amber
bond_style			harmonic
angle_style			harmonic
dihedral_style		harmonic
improper_style		cvff
pair_style			$pair_style $pair_style_args
kspace_style		$kspace_style $kspace_style_args

read_data			$data_file_name

thermo				1
thermo_style		custom step etotal pe ebond eangle edihed eimp evdwl ecoul elong press fmax fnorm
min_style			sd
minimize			1e-6 1000 10 10000
min_style			cg
minimize			1e-6 100 99990 990000
#unfix 				1
write_restart		$restart_final_name

write_dump			all custom $dump_file_name id type element mol x y z mass q $dump_modify_args